100
128
14
52
49
17
11
44
23
3
2
61
40
64
29
23
3
35
53
38
32
39
40
52
63
17
57
46
22
32
42
31
60
34
32
53
7
52
53
50
9
33
13
13
58
19
50
21
55
12
20
61
13
60
2
2
55
51
47
18
28
17
52
11
2
39
54
14
41
59
59
40
61
11
18
33
46
55
17
31
37
13
13
15
54
24
36
34
42
52
12
20
59
31
41
2
42
57
55
43
31
5